nNurses = 97;
nHours = 31;
minHours = 7;
maxHours = 20;
maxConsec = 16;
maxPresence = 9;
demand = [24, 19, 15, 12, 15, 13, 12, 8, 8, 6, 10, 12, 7, 6, 10, 9, 12, 9, 6, 6, 9, 6, 6, 10, 8, 7, 5, 7, 5, 10, 10];
